DIMENSION: 18
EDGE_WEIGHT_TYPE: EXPLICIT
EDGE_WEIGHT_FORMAT: FULL_MATRIX
EDGE_WEIGHT_SECTION:
32767 32767 32767 32767 32767 91 20 32767 21 77 37 32767 32767 32767 32767 2 32767 19 
32767 32767 32767 32767 32767 32767 32767 49 32767 32767 91 26 32767 32767 32767 38 32767 32767 
32767 32767 32767 32767 32767 12 32767 32767 32767 29 32767 32767 32767 32767 32767 50 32767 32767 
32767 32767 32767 32767 32767 66 32767 32767 32767 41 82 32767 5 32767 32767 48 32767 33 
32767 32767 32767 32767 32767 32767 86 32767 32767 32767 42 32767 32767 32767 96 32767 32767 37 
91 32767 12 66 32767 32767 32767 32767 32767 32767 32767 32767 32767 11 32767 32767 49 32767 
20 32767 32767 32767 86 32767 32767 32767 47 81 68 32767 32767 32767 32767 32767 32767 32767 
32767 49 32767 32767 32767 32767 32767 32767 32767 82 66 32767 32767 32767 32767 37 32767 14 
21 32767 32767 32767 32767 32767 47 32767 32767 32767 32767 32767 32767 32767 16 32767 36 32767 
77 32767 29 41 32767 32767 81 82 32767 32767 72 93 32767 32767 32767 32767 26 32767 
37 91 32767 82 42 32767 68 66 32767 72 32767 32767 32767 32767 77 32767 76 32767 
32767 26 32767 32767 32767 32767 32767 32767 32767 93 32767 32767 22 32767 32767 32767 32767 32767 
32767 32767 32767 5 32767 32767 32767 32767 32767 32767 32767 22 32767 74 23 1 32767 3 
32767 32767 32767 32767 32767 11 32767 32767 32767 32767 32767 32767 74 32767 32767 32767 32767 93 
32767 32767 32767 32767 96 32767 32767 32767 16 32767 77 32767 23 32767 32767 32767 32767 73 
2 38 50 48 32767 32767 32767 37 32767 32767 32767 32767 1 32767 32767 32767 2 82 
32767 32767 32767 32767 32767 49 32767 32767 36 26 76 32767 32767 32767 32767 2 32767 32767 
19 32767 32767 33 37 32767 32767 14 32767 32767 32767 32767 3 93 73 82 32767 32767 
EOF